nNurses = 169;
nHours = 33;
minHours = 9;
maxHours = 15;
maxConsec = 11;
maxPresence = 25;
demand = [12, 15, 14, 12, 15, 11, 13, 15, 16, 18, 20, 15, 14, 16, 19, 17, 19, 14, 18, 23, 18, 22, 18, 17, 21, 22, 17, 13, 11, 9, 12, 11, 15];
